data/benchmarks/bayes/90-15-5-q.cnf
p cnf 1065 925
c weights 0.60316 0.39683999999999997 1 1 1 1 1 1 1 1 1 1 1 1 1 1 1 1 1 1 1 1 1 1 1 1 1 1 1 1 1 1 1 1 1 1 1 1 1 1 1 1 1 1 1 1 1 1 1 1 1 1 1 1 1 1 1 1 1 1 1 1 1 1 1 1 1 1 1 1 1 1 1 1 1 1 1 1 1 1 1 1 1 1 1 1 1 1 1 1 1 1 1 1 1 1 1 1 1 1 1 1 1 1 1 1 1 1 1 1 1 1 1 1 1 1 1 1 1 1 1 1 1 1 1 1 1 1 1 1 1 1 1 1 1 1 1 1 1 1 1 1 1 1 1 1 1 1 1 1 1 1 1 1 1 1 1 1 1 1 1 1 1 1 1 1 1 1 1 1 1 1 1 1 1 1 1 1 1 1 1 1 1 1 1 1 1 1 1 1 1 1 1 1 1 1 1 1 1 1 1 1 1 1 1 1 1 1 1 1 1 1 1 1 1 1 1 1 1 1 1 1 1 1 1 1 1 1 1 1 1 1 1 1 1 1 1 1 1 1 1 1 1 1 1 1 1 1 1 1 1 1 1 1 1 1 1 1 1 1 1 1 1 1 1 1 1 1 1 1 1 1 1 1 1 1 1 1 1 1 1 1 1 1 1 1 1 1 1 1 1 1 1 1 1 1 1 1 1 1 1 1 1 1 1 1 1 1 1 1 1 1 1 1 1 1 1 1 1 1 1 1 1 1 1 1 1 1 1 1 1 1 1 1 1 1 1 1 1 1 1 1 1 1 1 1 1 1 1 1 1 1 1 1 1 1 1 1 1 1 1 1 1 1 1 1 1 1 1 1 1 1 1 1 1 1 1 1 1 1 1 1 1 1 1 1 1 1 1 1 1 1 1 1 1 1 1 1 1 1 1 1 1 1 1 1 1 1 1 1 1 1 1 1 1 1 1 1 1 1 1 1 1 1 1 1 1 1 1 1 1 1 1 1 1 1 1 1 1 1 1 1 1 1 1 1 1 1 1 1 0.5 0.5 0.5 0.5 0.5 0.5 0.5 0.5 0.5 0.5 0.5 0.5 0.5 0.5 0.5 0.5 0.5 0.5 0.5 0.5 0.5 0.5 0.5 0.5 0.5 0.5 0.5 0.5 0.5 0.5 0.5 0.5 0.5 0.5 0.5 0.5 0.5 0.5 0.5 0.5 0.5 0.5 0.5 0.5 0.5 0.5 0.5 0.5 0.5 0.5 0.5 0.5 0.5 0.5 0.5 0.5 0.5 0.5 0.5 0.5 0.5 0.5 0.5 0.5 0.5 0.5 0.5 0.5 0.5 0.5 0.5 0.5 0.5 0.5 0.5 0.5 0.5 0.5 0.5 0.5 0.5 0.5 0.5 0.5 0.5 0.5 0.5 0.5 0.5 0.5 0.5 0.5 0.5 0.5 0.5 0.5 0.5 0.5 0.5 0.5 0.5 0.5 0.5 0.5 0.5 0.5 0.5 0.5 0.12835 0.87165 0.530894 0.469106 0.539827 0.46017300000000005 0.758802 0.24119800000000002 0.5 0.5 0.5 0.5 0.5 0.5 0.5 0.5 0.5 0.5 0.5 0.5 0.5 0.5 0.5 0.5 0.5 0.5 0.5 0.5 0.5 0.5 0.5 0.5 0.5 0.5 0.5 0.5 0.5 0.5 0.5 0.5 0.5 0.5 0.5 0.5 0.5 0.5 0.5 0.5 0.5 0.5 0.5 0.5 0.5 0.5 0.5 0.5 0.60552 0.39448000000000005 0.988745 0.011255000000000015 0.403515 0.5964849999999999 0.253723 0.7462770000000001 0.5 0.5 0.5 0.5 0.5 0.5 0.5 0.5 0.5 0.5 0.5 0.5 0.5 0.5 0.5 0.5 0.5 0.5 0.5 0.5 0.5 0.5 0.5 0.5 0.5 0.5 0.5 0.5 0.5 0.5 0.5 0.5 0.5 0.5 0.5 0.5 0.5 0.5 0.5 0.5 0.5 0.5 0.5 0.5 0.5 0.5 0.5 0.5 0.5 0.5 0.5 0.5 0.5 0.5 0.5 0.5 0.5 0.5 0.5 0.5 0.5 0.5 0.5 0.5 0.5 0.5 0.5 0.5 0.5 0.5 0.5 0.5 0.5 0.5 0.5 0.5 0.5 0.5 0.5 0.5 0.5 0.5 0.5 0.5 0.5 0.5 0.5 0.5 0.5 0.5 0.5 0.5 0.5 0.5 0.5 0.5 0.5 0.5 0.5 0.5 0.5 0.5 0.5 0.5 0.5 0.5 0.5 0.5 0.5 0.5 0.5 0.5 0.5 0.5 0.5 0.5 0.5 0.5 0.5 0.5 0.5 0.5 0.5 0.5 0.5 0.5 0.5 0.5 0.5 0.5 0.5 0.5 0.5 0.5 0.5 0.5 0.5 0.5 0.5 0.5 0.5 0.5 0.5 0.5 0.5 0.5 0.5 0.5 0.5 0.5 0.5 0.5 0.5 0.5 0.5 0.5 0.5 0.5 0.5 0.5 0.5 0.5 0.5 0.5 0.5 0.5 0.5 0.5 0.5 0.5 0.5 0.5 0.5 0.5 0.5 0.5 0.5 0.5 0.5 0.5 0.5 0.5 0.5 0.5 0.5 0.5 0.5 0.5 0.5 0.5 0.5 0.5 0.5 0.5 0.5 0.5 0.5 0.5 0.5 0.5 0.5 0.5 0.5 0.5 0.5 0.5 0.5 0.5 0.5 0.5 0.5 0.5 0.5 0.5 0.5 0.5 0.5 0.5 0.5 0.5 0.5 0.5 0.5 0.5 0.578607 0.421393 0.983068 0.016931999999999947 0.784159 0.21584099999999995 0.292169 0.707831 0.5 0.5 0.5 0.5 0.243135 0.756865 0.675445 0.32455500000000004 0.046977 0.953023 0.597924 0.402076 0.5 0.5 0.5 0.5 0.5 0.5 0.5 0.5 0.5 0.5 0.5 0.5 0.5 0.5 0.5 0.5 0.5 0.5 0.5 0.5 0.5 0.5 0.5 0.5 0.5 0.5 0.5 0.5 0.5 0.5 0.5 0.5 0.5 0.5 0.5 0.5 0.5 0.5 0.5 0.5 0.5 0.5 0.5 0.5 0.5 0.5 0.5 0.5 0.5 0.5 0.5 0.5 0.5 0.5 0.5 0.5 0.5 0.5 0.5 0.5 0.5 0.5 0.5 0.5 0.5 0.5 0.5 0.5 0.5 0.5 0.5 0.5 0.821806 0.17819399999999996 0.0634993 0.9365007 0.659246 0.340754 0.17543 0.82457 0.5 0.5 0.5 0.5 0.5 0.5 0.5 0.5 0.5 0.5 0.5 0.5 0.5 0.5 0.5 0.5 0.5 0.5 0.5 0.5 0.5 0.5 0.5 0.5 0.5 0.5 0.5 0.5 0.5 0.5 0.5 0.5 0.5 0.5 0.5 0.5 0.5 0.5 0.5 0.5 0.5 0.5 0.5 0.5 0.5 0.5 0.5 0.5 0.5 0.5 0.5 0.5 0.5 0.5 0.5 0.5 0.5 0.5 0.5 0.5 0.5 0.5 0.5 0.5 0.5 0.5 0.5 0.5 0.353378 0.646622 0.0497836 0.9502164 0.603072 0.39692799999999995 0.911927 0.08807299999999996 0.5 0.5 0.5 0.5 0.5 0.5 0.5 0.5 0.5 0.5 0.5 0.5 0.5 0.5 0.5 0.5 0.5 0.5 0.5 0.5 0.5 0.5 0.5 0.5 0.5 0.5 0.5 0.5 0.5 0.5 0.5 0.5 0.5 0.5 0.5 0.5 0.5 0.5 0.5 0.5 0.5 0.5 0.5 0.5 0.5 0.5 0.5 0.5 0.5 0.5 0.5 0.5 0.5 0.5 0.5 0.5 0.5 0.5 0.5 0.5 0.5 0.5 0.5 0.5 0.5 0.5 0.5 0.5 0.5 0.5 0.5 0.5 0.5 0.5 0.5 0.5 0.5 0.5 0.5 0.5 0.5 0.5 0.5 0.5 0.5 0.5 0.5 0.5 0.5 0.5 0.5 0.5 0.5 0.5 0.5 0.5 0.5 0.5 0.5 0.5 0.5 0.5 0.5 0.5 0.5 0.5 0.5 0.5 0.5 0.5 0.5 0.5 0.5 0.5 0.5 0.5 0.5 0.5 0.5 0.5 0.5 0.5 0.5 0.5 0.5 0.5 0.5 0.5 0.5 0.5 0.5 0.5 0.5 0.5 0.5 0.5 0.5 0.5 0.5 0.5 0.5 0.5 0.5 0.5 0.5 0.5 0.5 0.5 0.5 0.5 0.5 0.5 0.5 0.5 0.5 0.5 0.5 0.5 0.5 0.5 0.5 0.5 0.5 0.5 0.5 0.5 0.5 0.5 0.5 0.5 0.5 0.5 0.5 0.5 0.5 0.5 0.5 0.5 0.5 0.5 0.5 0.5 0.5 0.5 0.5 0.5 0.5 0.5 0.5 0.5 0.5 0.5 0.5 0.5 0.5 0.5 0.5 0.5 0.5 0.5 0.5 0.5 0.5 0.5 0.5 0.5 0.5 0.5 0.5 0.5 0.5 0.5 0.5 0.5 0.5 0.5 0.5 0.5 0.5 0.5 0.5 0.5 0.5 0.5 0.5 0.5 0.5 0.5 0.5 0.5 0.5 0.5 0.5 0.5 0.5 0.5 0.5 0.5 0.5 0.5 0.5 0.5 0.5 0.5 0.5 0.5 0.5 0.5 0.935773 0.06422700000000003 0.879307 0.12069300000000005 0.248702 0.751298 0.910671 0.08932899999999999 0.04823 0.95177 0.696734 0.30326600000000004 0.974387 0.025612999999999997 0.533425 0.46657499999999996 0.5 0.5 0.5 0.5 0.5 0.5 0.5 0.5 0.5 0.5 0.5 0.5 0.5 0.5 0.5 0.5 0.5 0.5 0.5 0.5 0.5 0.5 0.5 0.5 0.5 0.5 0.5 0.5 0.5 0.5 0.5 0.5 0.5 0.5 0.5 0.5 0.582035 0.41796500000000003 0.637805 0.36219500000000004 0.976947 0.02305299999999999 0.630265 0.36973500000000004 0.5 0.5 0.5 0.5 0.5 0.5 0.5 0.5 0.358699 0.641301 0.481204 0.518796 0.425436 0.5745640000000001 0.122863 0.8771370000000001 0.5 0.5 0.5 0.5 0.5 0.5 0.5 0.5 0.5 0.5 0.5 0.5 0.5 0.5 0.5 0.5 0.5 0.5 0.5 0.5 0.5 0.5 0.5 0.5 0.5 0.5 0.5 0.5 0.5 0.5 0.5 0.5 0.5 0.5 0.5 0.5 0.5 0.5 0.5 0.5 0.5 0.5 0.5 0.5 0.5 0.5 0.5 0.5 0.5 0.5 0.5 0.5 0.5 0.5 0.5 0.5 0.5 0.5 0.5 0.5 0.5 0.5 0.5 0.5 0.5 0.5 0.5 0.5 0.5 0.5 0.5 0.5 0.5 0.5 0.5 0.5 0.5 0.5 0.5 0.5 0.5 0.5 0.5 0.5 0.5 0.5 0.5 0.5 0.5 0.5 0.5 0.5 0.5 0.5 0.5 0.5 0.5 0.5 0.5 0.5 0.610676 0.389324 0.261862 0.738138 0.479939 0.520061 0.0887456 0.9112544 0.5 0.5 0.5 0.5 0.5 0.5 0.5 0.5 0.5 0.5 0.5 0.5 0.5 0.5 0.5 0.5 0.5 0.5 0.5 0.5 0.5 0.5 0.5 0.5 0.5 0.5 0.5 0.5 0.5 0.5 0.5 0.5 0.5 0.5 0.5 0.5 0.5 0.5 0.5 0.5 0.664791 0.335209 0.65997 0.34003000000000005 0.40487 0.5951299999999999 0.753537 0.246463 0.5 0.5 0.5 0.5 0.5 0.5 0.5 0.5 0.5 0.5 0.5 0.5 0.5 0.5 0.5 0.5 0.5 0.5 0.5 0.5 0.5 0.5 0.5 0.5 0.5 0.5 0.5 0.5 0.5 0.5 0.5 0.5 0.5 0.5 0.5 0.5 0.5 0.5 0.5 0.5 0.5 0.5 0.5 0.5 0.5 0.5 0.5 0.5 0.5 0.5 0.5 0.5 0.5 0.5 0.5 0.5 0.5 0.5 0.5 0.5 0.5 0.5 0.5 0.5 0.5 0.5 0.5 0.5 0.5 0.5 0.5 0.5 0.5 0.5 0.5 0.5 0.5 0.5 0.5 0.5 0.5 0.5 0.5 0.5 0.5 0.5 0.5 0.5 0.5 0.5 0.5 0.5 0.5 0.5 0.5 0.5 0.5 0.5 0.5 0.5 0.5 0.5 0.5 0.5 0.5 0.5 0.5 0.5 0.5 0.5 0.5 0.5 0.5 0.5 0.5 0.5 0.5 0.5 0.5 0.5 0.5 0.5 0.5 0.5 0.5 0.5 0.5 0.5 0.5 0.5 0.5 0.5 0.5 0.5 0.5 0.5 0.5 0.5 0.5 0.5 0.5 0.5 0.5 0.5 0.5 0.5 0.5 0.5 0.0585971 0.9414029 0.87189 0.12810999999999995 0.372075 0.6279250000000001 0.00528993 0.99471007 0.5 0.5 0.5 0.5 0.5 0.5 0.5 0.5 0.5 0.5 0.5 0.5 0.5 0.5 0.5 0.5 0.5 0.5 0.5 0.5 0.5 0.5 0.5 0.5 0.5 0.5 0.5 0.5 0.5 0.5 0.5 0.5 0.5 0.5 0.5 0.5 0.5 0.5 0.5 0.5 0.5 0.5 0.5 0.5 0.5 0.5 0.5 0.5 0.5 0.5 0.5 0.5 0.5 0.5 0.5 0.5 0.5 0.5 0.5 0.5 0.377902 0.622098 0.42853 0.5714699999999999 0.784231 0.215769 0.954723 0.04527700000000001 0.5 0.5 0.5 0.5 0.5 0.5 0.5 0.5 0.5 0.5 0.5 0.5 0.5 0.5 0.5 0.5 0.5 0.5 0.5 0.5 0.5 0.5 0.5 0.5 0.5 0.5 0.5 0.5 0.5 0.5 0.5 0.5 0.5 0.5 0.5 0.5 0.5 0.5 0.5 0.5 0.5 0.5 0.5 0.5 0.5 0.5 0.5 0.5 0.5 0.5 0.5 0.5 0.5 0.5 0.5 0.5 0.5 0.5 0.5 0.5 0.5 0.5 0.5 0.5 0.5 0.5 0.5 0.5 0.5 0.5 0.5 0.5 0.5 0.5 0.5 0.5 0.5 0.5 0.5 0.5 0.5 0.5 0.5 0.5 0.5 0.5 0.5 0.5 0.5 0.5 0.5 0.5 0.00208902 0.99791098 0.313336 0.6866639999999999 0.795041 0.204959 0.813309 0.18669100000000005 0.526662 0.47333800000000004 0.619639 0.38036099999999995 0.0803372 0.9196628 0.748182 0.251818 0.5 0.5 0.5 0.5 0.5 0.5 0.5 0.5 0.5 0.5 0.5 0.5 0.5 0.5 0.5 0.5 0.5 0.5 0.5 0.5 0.5 0.5 0.5 0.5 0.5 0.5 0.5 0.5 0.5 0.5 0.5 0.5 0.5 0.5 0.5 0.5 0.5 0.5 0.5 0.5 0.5 0.5 0.5 0.5 0.5 0.5 0.5 0.5 0.5 0.5 0.5 0.5 0.5 0.5 0.5 0.5 0.5 0.5 0.5 0.5 0.5 0.5 0.5 0.5 0.5 0.5 0.5 0.5 0.5 0.5 0.5 0.5 0.5 0.5 0.5 0.5 0.5 0.5 0.5 0.5 0.5 0.5 0.5 0.5 0.5 0.5 0.5 0.5 0.5 0.5 0.5 0.5 0.5 0.5 0.5 0.5 0.5 0.5 0.5 0.5 0.0236807 0.9763193 0.907435 0.09256500000000001 0.669571 0.330429 0.246614 0.753386 0.5 0.5 0.5 0.5 0.5 0.5 0.5 0.5 0.5 0.5 0.5 0.5 0.5 0.5 0.5 0.5 0.5 0.5 0.5 0.5 0.5 0.5 0.5 0.5 0.927996 0.07200399999999996 0.41191 0.58809 0.895946 0.10405399999999998 0.616831 0.383169 0.5 0.5 0.5 0.5 0.5 0.5 0.5 0.5 0.5 0.5 0.5 0.5 0.5 0.5 0.5 0.5 0.5 0.5 0.5 0.5 0.5 0.5 0.5 0.5 0.5 0.5 0.5 0.5 0.5 0.5 0.5 0.5 0.5 0.5 0.5 0.5 0.5 0.5 0.5 0.5 0.5 0.5 0.5 0.5 0.5 0.5 0.5 0.5 0.5 0.5 0.5 0.5 0.5 0.5 0.5 0.5 0.5 0.5 0.5 0.5 0.998935 0.0010649999999999826 0.292252 0.707748 0.96538 0.034619999999999984 0.378436 0.621564 0.5 0.5 0.5 0.5 0.5 0.5 0.5 0.5 0.5 0.5 0.5 0.5 0.5 0.5 0.5 0.5 0.5 0.5 0.5 0.5 0.5 0.5 0.5 0.5 0.5 0.5 0.5 0.5 0.5 0.5 0.5 0.5 0.5 0.5 0.5 0.5 0.5 0.5 0.5 0.5 0.5 0.5 0.5 0.5 0.5 0.5 0.5 0.5 0.5 0.5 0.5 0.5 0.5 0.5 0.5 0.5 0.660204 0.339796 0.328409 0.671591 0.00896308 0.99103692 0.516065 0.483935 0.5 0.5 0.5 0.5 0.5 0.5 0.5 0.5 0.616027 0.383973 0.504803 0.495197 0.0125998 0.9874002 0.310587 0.689413 0.5 0.5 0.5 0.5 0.5 0.5 0.5 0.5
-1 -2 0
1 2 0
-2 3 0
2 -3 0
-3 -4 0
3 4 0
-4 5 0
4 -5 0
-5 -6 0
5 6 0
-6 7 0
6 -7 0
-7 8 0
7 -8 0
-8 -9 0
8 9 0
-9 -10 0
9 10 0
-10 11 0
10 -11 0
-11 12 0
11 -12 0
-12 -13 0
12 13 0
-13 14 0
13 -14 0
-14 15 0
14 -15 0
-1 16 0
1 -16 0
-16 -2 17 0
-16 2 17 0
16 -2 -17 0
16 2 -17 0
-17 -3 18 0
-17 3 -18 0
17 -3 18 0
17 3 18 0
-18 -4 19 0
-18 4 19 0
18 -4 19 0
18 4 -19 0
-19 -5 20 0
-19 5 -20 0
19 -5 20 0
19 5 -20 0
-20 -6 -21 0
-20 6 21 0
20 -6 -21 0
20 6 -21 0
-21 -7 22 0
-21 7 -22 0
21 -7 -22 0
21 7 -22 0
-22 -8 -280 23 0
-22 -8 280 -23 0
-22 8 -281 23 0
-22 8 281 -23 0
22 -8 -282 23 0
22 -8 282 -23 0
22 8 -283 23 0
22 8 283 -23 0
-23 -9 -24 0
-23 9 -24 0
23 -9 24 0
23 9 24 0
-24 -10 25 0
-24 10 -25 0
24 -10 25 0
24 10 -25 0
-25 -11 26 0
-25 11 26 0
25 -11 -26 0
25 11 -26 0
-26 -12 -27 0
-26 12 -27 0
26 -12 27 0
26 12 -27 0
-27 -13 28 0
-27 13 28 0
27 -13 28 0
27 13 -28 0
-28 -14 29 0
-28 14 -29 0
28 -14 -29 0
28 14 -29 0
-29 -15 -308 30 0
-29 -15 308 -30 0
-29 15 -309 30 0
-29 15 309 -30 0
29 -15 -310 30 0
29 -15 310 -30 0
29 15 -311 30 0
29 15 311 -30 0
-16 31 0
16 -31 0
-31 -17 -32 0
-31 17 -32 0
31 -17 32 0
31 17 -32 0
-32 -18 33 0
-32 18 -33 0
32 -18 33 0
32 18 33 0
-33 -19 -34 0
-33 19 34 0
33 -19 -34 0
33 19 34 0
-34 -20 35 0
-34 20 35 0
34 -20 35 0
34 20 -35 0
-35 -21 36 0
-35 21 36 0
35 -21 -36 0
35 21 36 0
-36 -22 37 0
-36 22 37 0
36 -22 37 0
36 22 -37 0
-37 -23 -38 0
-37 23 38 0
37 -23 38 0
37 23 38 0
-38 -24 -39 0
-38 24 -39 0
38 -24 39 0
38 24 -39 0
-39 -25 -40 0
-39 25 -40 0
39 -25 40 0
39 25 -40 0
-40 -26 -41 0
-40 26 41 0
40 -26 41 0
40 26 41 0
-41 -27 -42 0
-41 27 42 0
41 -27 42 0
41 27 42 0
-42 -28 43 0
-42 28 43 0
42 -28 -43 0
42 28 43 0
-43 -29 -44 0
-43 29 -44 0
43 -29 44 0
43 29 44 0
-44 -30 -45 0
-44 30 45 0
44 -30 45 0
44 30 -45 0
-31 46 0
31 -46 0
-46 -32 47 0
-46 32 -47 0
46 -32 -47 0
46 32 47 0
-47 -33 48 0
-47 33 -48 0
47 -33 48 0
47 33 -48 0
-48 -34 -49 0
-48 34 -49 0
48 -34 49 0
48 34 49 0
-49 -35 50 0
-49 35 50 0
49 -35 -50 0
49 35 50 0
-50 -36 51 0
-50 36 51 0
50 -36 -51 0
50 36 -51 0
-51 -37 52 0
-51 37 52 0
51 -37 52 0
51 37 -52 0
-52 -38 -53 0
-52 38 53 0
52 -38 -53 0
52 38 53 0
-53 -39 54 0
-53 39 54 0
53 -39 -54 0
53 39 -54 0
-54 -40 -55 0
-54 40 -55 0
54 -40 -55 0
54 40 55 0
-55 -41 56 0
-55 41 -56 0
55 -41 56 0
55 41 56 0
-56 -42 -57 0
-56 42 -57 0
56 -42 57 0
56 42 57 0
-57 -43 58 0
-57 43 -58 0
57 -43 -58 0
57 43 -58 0
-58 -44 59 0
-58 44 -59 0
58 -44 -59 0
58 44 59 0
-59 -45 -424 60 0
-59 -45 424 -60 0
-59 45 -425 60 0
-59 45 425 -60 0
59 -45 -426 60 0
59 -45 426 -60 0
59 45 -427 60 0
59 45 427 -60 0
-46 61 0
46 -61 0
-61 -47 -430 62 0
-61 -47 430 -62 0
-61 47 -431 62 0
-61 47 431 -62 0
61 -47 -432 62 0
61 -47 432 -62 0
61 47 -433 62 0
61 47 433 -62 0
-62 -48 63 0
-62 48 63 0
62 -48 -63 0
62 48 63 0
-63 -49 -64 0
-63 49 -64 0
63 -49 64 0
63 49 64 0
-64 -50 65 0
-64 50 -65 0
64 -50 65 0
64 50 65 0
-65 -51 66 0
-65 51 -66 0
65 -51 -66 0
65 51 -66 0
-66 -52 67 0
-66 52 67 0
66 -52 -67 0
66 52 -67 0
-67 -53 68 0
-67 53 -68 0
67 -53 -68 0
67 53 68 0
-68 -54 69 0
-68 54 69 0
68 -54 -69 0
68 54 -69 0
-69 -55 70 0
-69 55 70 0
69 -55 -70 0
69 55 -70 0
-70 -56 71 0
-70 56 -71 0
70 -56 -71 0
70 56 -71 0
-71 -57 -470 72 0
-71 -57 470 -72 0
-71 57 -471 72 0
-71 57 471 -72 0
71 -57 -472 72 0
71 -57 472 -72 0
71 57 -473 72 0
71 57 473 -72 0
-72 -58 73 0
-72 58 73 0
72 -58 -73 0
72 58 73 0
-73 -59 74 0
-73 59 74 0
73 -59 -74 0
73 59 74 0
-74 -60 -75 0
-74 60 -75 0
74 -60 75 0
74 60 -75 0
-61 -76 0
61 76 0
-76 -62 77 0
-76 62 -77 0
76 -62 -77 0
76 62 -77 0
-77 -63 -78 0
-77 63 -78 0
77 -63 78 0
77 63 -78 0
-78 -64 -79 0
-78 64 -79 0
78 -64 79 0
78 64 79 0
-79 -65 80 0
-79 65 80 0
79 -65 -80 0
79 65 -80 0
-80 -66 -81 0
-80 66 81 0
80 -66 -81 0
80 66 -81 0
-81 -67 -508 82 0
-81 -67 508 -82 0
-81 67 -509 82 0
-81 67 509 -82 0
81 -67 -510 82 0
81 -67 510 -82 0
81 67 -511 82 0
81 67 511 -82 0
-82 -68 -83 0
-82 68 83 0
82 -68 -83 0
82 68 83 0
-83 -69 -84 0
-83 69 84 0
83 -69 84 0
83 69 84 0
-84 -70 -85 0
-84 70 -85 0
84 -70 85 0
84 70 85 0
-85 -71 -86 0
-85 71 -86 0
85 -71 -86 0
85 71 86 0
-86 -72 -87 0
-86 72 87 0
86 -72 87 0
86 72 87 0
-87 -73 -88 0
-87 73 88 0
87 -73 88 0
87 73 88 0
-88 -74 89 0
-88 74 89 0
88 -74 -89 0
88 74 -89 0
-89 -75 90 0
-89 75 -90 0
89 -75 -90 0
89 75 90 0
-76 91 0
76 -91 0
-91 -77 -92 0
-91 77 92 0
91 -77 -92 0
91 77 92 0
-92 -78 93 0
-92 78 -93 0
92 -78 -93 0
92 78 -93 0
-93 -79 94 0
-93 79 94 0
93 -79 -94 0
93 79 94 0
-94 -80 95 0
-94 80 -95 0
94 -80 -95 0
94 80 -95 0
-95 -81 -96 0
-95 81 -96 0
95 -81 -96 0
95 81 96 0
-96 -82 97 0
-96 82 97 0
96 -82 -97 0
96 82 -97 0
-97 -83 98 0
-97 83 -98 0
97 -83 -98 0
97 83 -98 0
-98 -84 -99 0
-98 84 99 0
98 -84 -99 0
98 84 99 0
-99 -85 100 0
-99 85 -100 0
99 -85 100 0
99 85 -100 0
-100 -86 -101 0
-100 86 101 0
100 -86 101 0
100 86 -101 0
-101 -87 -102 0
-101 87 102 0
101 -87 102 0
101 87 102 0
-102 -88 -103 0
-102 88 103 0
102 -88 -103 0
102 88 -103 0
-103 -89 104 0
-103 89 -104 0
103 -89 -104 0
103 89 104 0
-104 -90 105 0
-104 90 -105 0
104 -90 -105 0
104 90 -105 0
-91 106 0
91 -106 0
-106 -92 -107 0
-106 92 -107 0
106 -92 107 0
106 92 -107 0
-107 -93 -108 0
-107 93 108 0
107 -93 -108 0
107 93 -108 0
-108 -94 109 0
-108 94 109 0
108 -94 -109 0
108 94 109 0
-109 -95 110 0
-109 95 110 0
109 -95 -110 0
109 95 110 0
-110 -96 111 0
-110 96 111 0
110 -96 -111 0
110 96 111 0
-111 -97 -112 0
-111 97 112 0
111 -97 -112 0
111 97 -112 0
-112 -98 -113 0
-112 98 113 0
112 -98 -113 0
112 98 113 0
-113 -99 114 0
-113 99 -114 0
113 -99 -114 0
113 99 114 0
-114 -100 -636 115 0
-114 -100 636 -115 0
-114 100 -637 115 0
-114 100 637 -115 0
114 -100 -638 115 0
114 -100 638 -115 0
114 100 -639 115 0
114 100 639 -115 0
-115 -101 -640 116 0
-115 -101 640 -116 0
-115 101 -641 116 0
-115 101 641 -116 0
115 -101 -642 116 0
115 -101 642 -116 0
115 101 -643 116 0
115 101 643 -116 0
-116 -102 -117 0
-116 102 117 0
116 -102 117 0
116 102 117 0
-117 -103 -118 0
-117 103 118 0
117 -103 -118 0
117 103 -118 0
-118 -104 119 0
-118 104 -119 0
118 -104 -119 0
118 104 -119 0
-119 -105 -120 0
-119 105 120 0
119 -105 120 0
119 105 120 0
-106 121 0
106 -121 0
-121 -107 -662 122 0
-121 -107 662 -122 0
-121 107 -663 122 0
-121 107 663 -122 0
121 -107 -664 122 0
121 -107 664 -122 0
121 107 -665 122 0
121 107 665 -122 0
-122 -108 -123 0
-122 108 -123 0
122 -108 123 0
122 108 -123 0
-123 -109 -670 124 0
-123 -109 670 -124 0
-123 109 -671 124 0
-123 109 671 -124 0
123 -109 -672 124 0
123 -109 672 -124 0
123 109 -673 124 0
123 109 673 -124 0
-124 -110 -125 0
-124 110 125 0
124 -110 -125 0
124 110 -125 0
-125 -111 -126 0
-125 111 -126 0
125 -111 126 0
125 111 126 0
-126 -112 -127 0
-126 112 127 0
126 -112 127 0
126 112 -127 0
-127 -113 128 0
-127 113 128 0
127 -113 128 0
127 113 -128 0
-128 -114 129 0
-128 114 -129 0
128 -114 -129 0
128 114 129 0
-129 -115 -130 0
-129 115 130 0
129 -115 -130 0
129 115 -130 0
-130 -116 131 0
-130 116 -131 0
130 -116 131 0
130 116 131 0
-131 -117 132 0
-131 117 132 0
131 -117 -132 0
131 117 132 0
-132 -118 133 0
-132 118 -133 0
132 -118 133 0
132 118 133 0
-133 -119 -134 0
-133 119 -134 0
133 -119 -134 0
133 119 134 0
-134 -120 135 0
-134 120 135 0
134 -120 135 0
134 120 -135 0
-121 136 0
121 -136 0
-136 -122 -137 0
-136 122 -137 0
136 -122 137 0
136 122 137 0
-137 -123 -724 138 0
-137 -123 724 -138 0
-137 123 -725 138 0
-137 123 725 -138 0
137 -123 -726 138 0
137 -123 726 -138 0
137 123 -727 138 0
137 123 727 -138 0
-138 -124 139 0
-138 124 139 0
138 -124 -139 0
138 124 139 0
-139 -125 -140 0
-139 125 -140 0
139 -125 140 0
139 125 140 0
-140 -126 -141 0
-140 126 141 0
140 -126 141 0
140 126 -141 0
-141 -127 142 0
-141 127 142 0
141 -127 142 0
141 127 -142 0
-142 -128 143 0
-142 128 143 0
142 -128 143 0
142 128 -143 0
-143 -129 -748 144 0
-143 -129 748 -144 0
-143 129 -749 144 0
-143 129 749 -144 0
143 -129 -750 144 0
143 -129 750 -144 0
143 129 -751 144 0
143 129 751 -144 0
-144 -130 145 0
-144 130 145 0
144 -130 -145 0
144 130 -145 0
-145 -131 -146 0
-145 131 -146 0
145 -131 146 0
145 131 146 0
-146 -132 147 0
-146 132 -147 0
146 -132 -147 0
146 132 147 0
-147 -133 148 0
-147 133 148 0
147 -133 -148 0
147 133 -148 0
-148 -134 149 0
-148 134 149 0
148 -134 149 0
148 134 -149 0
-149 -135 -150 0
-149 135 150 0
149 -135 150 0
149 135 150 0
-136 -151 0
136 151 0
-151 -137 -152 0
-151 137 -152 0
151 -137 152 0
151 137 152 0
-152 -138 -153 0
-152 138 -153 0
152 -138 -153 0
152 138 153 0
-153 -139 -154 0
-153 139 -154 0
153 -139 -154 0
153 139 154 0
-154 -140 -155 0
-154 140 155 0
154 -140 155 0
154 140 155 0
-155 -141 -156 0
-155 141 -156 0
155 -141 156 0
155 141 156 0
-156 -142 -157 0
-156 142 -157 0
156 -142 157 0
156 142 157 0
-157 -143 158 0
-157 143 158 0
157 -143 -158 0
157 143 -158 0
-158 -144 -159 0
-158 144 -159 0
158 -144 159 0
158 144 159 0
-159 -145 -160 0
-159 145 160 0
159 -145 160 0
159 145 -160 0
-160 -146 161 0
-160 146 -161 0
160 -146 -161 0
160 146 -161 0
-161 -147 162 0
-161 147 162 0
161 -147 162 0
161 147 -162 0
-162 -148 -163 0
-162 148 163 0
162 -148 163 0
162 148 -163 0
-163 -149 -826 164 0
-163 -149 826 -164 0
-163 149 -827 164 0
-163 149 827 -164 0
163 -149 -828 164 0
163 -149 828 -164 0
163 149 -829 164 0
163 149 829 -164 0
-164 -150 -165 0
-164 150 -165 0
164 -150 165 0
164 150 165 0
-151 -166 0
151 166 0
-166 -152 167 0
-166 152 167 0
166 -152 167 0
166 152 -167 0
-167 -153 168 0
-167 153 -168 0
167 -153 168 0
167 153 -168 0
-168 -154 169 0
-168 154 -169 0
168 -154 -169 0
168 154 -169 0
-169 -155 170 0
-169 155 -170 0
169 -155 170 0
169 155 170 0
-170 -156 -171 0
-170 156 171 0
170 -156 -171 0
170 156 -171 0
-171 -157 -172 0
-171 157 172 0
171 -157 172 0
171 157 172 0
-172 -158 -860 173 0
-172 -158 860 -173 0
-172 158 -861 173 0
-172 158 861 -173 0
172 -158 -862 173 0
172 -158 862 -173 0
172 158 -863 173 0
172 158 863 -173 0
-173 -159 -174 0
-173 159 -174 0
173 -159 174 0
173 159 -174 0
-174 -160 175 0
-174 160 -175 0
174 -160 175 0
174 160 175 0
-175 -161 -176 0
-175 161 -176 0
175 -161 -176 0
175 161 176 0
-176 -162 -177 0
-176 162 -177 0
176 -162 -177 0
176 162 177 0
-177 -163 178 0
-177 163 -178 0
177 -163 178 0
177 163 178 0
-178 -164 179 0
-178 164 -179 0
178 -164 -179 0
178 164 179 0
-179 -165 180 0
-179 165 180 0
179 -165 -180 0
179 165 -180 0
-166 -181 0
166 181 0
-181 -167 182 0
-181 167 182 0
181 -167 -182 0
181 167 -182 0
-182 -168 -183 0
-182 168 -183 0
182 -168 183 0
182 168 -183 0
-183 -169 -184 0
-183 169 -184 0
183 -169 -184 0
183 169 184 0
-184 -170 185 0
-184 170 -185 0
184 -170 185 0
184 170 -185 0
-185 -171 -910 186 0
-185 -171 910 -186 0
-185 171 -911 186 0
-185 171 911 -186 0
185 -171 -912 186 0
185 -171 912 -186 0
185 171 -913 186 0
185 171 913 -186 0
-186 -172 -914 187 0
-186 -172 914 -187 0
-186 172 -915 187 0
-186 172 915 -187 0
186 -172 -916 187 0
186 -172 916 -187 0
186 172 -917 187 0
186 172 917 -187 0
-187 -173 188 0
-187 173 -188 0
187 -173 -188 0
187 173 -188 0
-188 -174 189 0
-188 174 -189 0
188 -174 189 0
188 174 189 0
-189 -175 -190 0
-189 175 190 0
189 -175 190 0
189 175 190 0
-190 -176 -191 0
-190 176 191 0
190 -176 191 0
190 176 -191 0
-191 -177 192 0
-191 177 192 0
191 -177 192 0
191 177 -192 0
-192 -178 193 0
-192 178 193 0
192 -178 -193 0
192 178 -193 0
-193 -179 194 0
-193 179 -194 0
193 -179 -194 0
193 179 194 0
-194 -180 195 0
-194 180 -195 0
194 -180 195 0
194 180 -195 0
-181 196 0
181 -196 0
-196 -182 197 0
-196 182 -197 0
196 -182 197 0
196 182 197 0
-197 -183 -198 0
-197 183 -198 0
197 -183 198 0
197 183 -198 0
-198 -184 199 0
-198 184 199 0
198 -184 -199 0
198 184 199 0
-199 -185 -200 0
-199 185 200 0
199 -185 200 0
199 185 200 0
-200 -186 -968 201 0
-200 -186 968 -201 0
-200 186 -969 201 0
-200 186 969 -201 0
200 -186 -970 201 0
200 -186 970 -201 0
200 186 -971 201 0
200 186 971 -201 0
-201 -187 -202 0
-201 187 -202 0
201 -187 -202 0
201 187 202 0
-202 -188 203 0
-202 188 -203 0
202 -188 -203 0
202 188 203 0
-203 -189 204 0
-203 189 204 0
203 -189 -204 0
203 189 -204 0
-204 -190 -984 205 0
-204 -190 984 -205 0
-204 190 -985 205 0
-204 190 985 -205 0
204 -190 -986 205 0
204 -190 986 -205 0
204 190 -987 205 0
204 190 987 -205 0
-205 -191 -206 0
-205 191 -206 0
205 -191 206 0
205 191 206 0
-206 -192 -207 0
-206 192 -207 0
206 -192 207 0
206 192 -207 0
-207 -193 -208 0
-207 193 -208 0
207 -193 208 0
207 193 -208 0
-208 -194 209 0
-208 194 -209 0
208 -194 -209 0
208 194 209 0
-209 -195 210 0
-209 195 -210 0
209 -195 -210 0
209 195 210 0
-196 -211 0
196 211 0
-211 -197 -212 0
-211 197 212 0
211 -197 -212 0
211 197 -212 0
-212 -198 213 0
-212 198 -213 0
212 -198 -213 0
212 198 -213 0
-213 -199 -1018 214 0
-213 -199 1018 -214 0
-213 199 -1019 214 0
-213 199 1019 -214 0
213 -199 -1020 214 0
213 -199 1020 -214 0
213 199 -1021 214 0
213 199 1021 -214 0
-214 -200 -215 0
-214 200 -215 0
214 -200 215 0
214 200 215 0
-215 -201 216 0
-215 201 -216 0
215 -201 216 0
215 201 216 0
-216 -202 -217 0
-216 202 -217 0
216 -202 217 0
216 202 -217 0
-217 -203 218 0
-217 203 218 0
217 -203 -218 0
217 203 218 0
-218 -204 -219 0
-218 204 219 0
218 -204 -219 0
218 204 219 0
-219 -205 -220 0
-219 205 220 0
219 -205 220 0
219 205 220 0
-220 -206 221 0
-220 206 -221 0
220 -206 221 0
220 206 221 0
-221 -207 -1050 222 0
-221 -207 1050 -222 0
-221 207 -1051 222 0
-221 207 1051 -222 0
221 -207 -1052 222 0
221 -207 1052 -222 0
221 207 -1053 222 0
221 207 1053 -222 0
-222 -208 223 0
-222 208 -223 0
222 -208 223 0
222 208 223 0
-223 -209 -1058 224 0
-223 -209 1058 -224 0
-223 209 -1059 224 0
-223 209 1059 -224 0
223 -209 -1060 224 0
223 -209 1060 -224 0
223 209 -1061 224 0
223 209 1061 -224 0
-224 -210 -225 0
-224 210 225 0
224 -210 -225 0
224 210 225 0
225 0
