data/benchmarks/bayes/90-15-5-q.gr
p tw 1065 868
166 181
198 213
15 30
67 68
47 62
99 100
59 73
114 637
107 122
159 160
139 154
8 9
40 41
199 214
48 63
100 101
80 95
132 133
224 1061
92 106
140 155
192 193
172 187
41 42
73 74
184 198
172 861
109 671
33 47
81 96
133 134
14 15
138 725
125 139
171 911
173 188
121 663
22 37
74 75
106 107
66 80
114 129
166 167
47 48
158 172
206 221
7 21
209 1059
55 70
107 108
213 1020
99 113
147 162
199 200
48 49
80 81
191 205
40 54
123 726
140 141
186 913
223 1060
132 146
29 310
81 82
73 87
173 174
59 427
22 23
165 179
14 28
114 115
200 969
206 207
55 56
198 212
47 61
147 148
60 427
114 636
207 208
139 153
21 36
199 213
80 94
113 128
186 917
172 186
205 220
54 69
109 670
172 860
181 182
146 161
138 724
171 910
173 187
121 662
87 102
22 283
214 215
179 194
28 43
129 751
206 220
62 432
213 1019
88 103
185 911
120 135
21 22
147 161
124 672
180 195
29 44
61 76
113 114
144 748
186 912
121 136
153 168
205 206
223 1059
2 17
54 55
137 727
62 77
94 109
146 147
59 426
154 169
47 433
3 18
101 642
35 50
87 88
95 110
127 142
179 180
28 29
187 202
36 51
88 89
68 83
128 143
222 1053
160 175
29 30
61 62
21 35
69 84
121 122
101 116
153 154
2 3
113 127
161 176
213 214
10 25
62 63
94 95
205 219
54 68
102 117
154 155
13 27
3 4
35 36
146 160
194 209
105 119
43 58
95 96
127 128
207 1051
87 101
67 510
135 150
187 188
36 37
205 987
68 69
123 670
179 193
28 42
129 750
76 91
128 129
62 431
116 640
160 161
149 826
185 910
120 134
168 183
220 221
79 93
69 70
124 671
101 102
161 162
20 34
10 11
72 471
153 167
2 16
137 726
102 103
94 108
194 195
53 67
43 44
47 432
101 641
164 828
35 49
57 473
127 141
190 984
86 100
76 77
9 24
68 82
168 169
27 41
222 1052
160 174
82 511
42 57
101 115
134 149
60 74
30 311
75 90
201 971
172 916
16 31
108 123
207 1050
9 10
67 509
71 470
205 986
49 64
129 749
186 200
15 309
62 430
109 124
42 43
201 216
163 827
82 97
134 135
142 157
143 750
72 470
23 38
186 968
83 98
115 130
16 17
175 190
56 71
108 109
164 827
193 207
116 131
61 433
115 642
49 50
158 860
208 223
57 72
109 110
167 182
89 104
187 914
204 985
116 643
149 164
201 202
50 51
30 45
82 83
8 283
42 56
90 105
142 143
200 215
23 24
134 148
30 310
182 197
83 84
141 156
115 116
23 280
75 89
201 970
123 138
173 862
34 48
175 176
24 25
56 57
172 915
199 1018
64 79
116 117
174 189
115 637
108 122
156 171
208 209
67 81
67 508
57 58
167 168
89 90
221 1051
49 63
159 173
97 112
122 663
8 22
149 150
207 222
15 308
189 204
100 114
148 163
200 201
163 826
45 425
81 509
82 96
192 206
182 183
41 55
214 1020
31 32
141 142
107 665
143 749
23 37
133 147
123 124
181 196
115 129
215 216
74 88
64 65
122 137
174 175
56 70
156 157
15 29
5 6
115 641
107 121
97 98
71 473
167 181
89 103
204 984
189 190
48 62
148 149
224 1060
30 44
140 154
8 282
63 78
200 214
222 223
81 95
4 19
141 155
186 971
22 36
100 639
122 123
173 861
201 969
114 128
37 52
174 188
209 1058
55 69
115 636
200 970
158 863
70 85
221 1050
122 662
207 221
187 917
123 725
11 26
63 64
148 162
29 309
45 424
81 508
4 5
214 1019
107 664
44 59
37 38
200 968
196 211
122 136
155 170
199 1021
96 111
18 33
70 71
60 426
130 131
188 203
11 12
170 185
224 1059
129 144
186 916
8 281
163 164
44 45
203 218
162 177
100 638
144 159
173 860
196 197
103 118
155 156
22 282
137 138
195 210
96 97
18 19
177 192
213 1018
88 102
136 151
188 189
114 639
180 194
118 133
170 171
29 43
77 92
129 130
123 724
186 911
210 225
111 112
169 184
221 222
223 1058
29 308
151 166
203 204
62 76
110 125
162 163
109 673
172 863
214 1018
59 425
154 168
144 145
202 217
3 17
138 727
51 66
103 104
171 913
121 665
95 109
85 86
143 158
155 169
187 201
177 178
36 50
136 137
209 1061
96 110
128 142
60 425
118 119
77 78
188 202
69 83
169 170
144 751
129 143
186 915
161 175
151 152
10 24
110 111
102 116
202 203
25 40
51 52
162 176
194 208
43 57
143 144
103 117
22 281
135 149
200 971
17 32
195 209
168 182
114 638
124 670
50 65
77 91
186 910
169 183
137 725
25 26
110 124
109 672
59 424
24 39
47 431
101 640
138 726
51 65
171 912
202 216
84 99
121 664
57 472
17 18
143 157
176 191
9 23
123 673
117 132
213 1021
149 829
185 913
222 1051
82 510
209 224
58 73
144 750
150 165
186 914
31 46
223 1061
91 106
183 198
32 47
84 85
158 159
217 218
124 139
176 177
5 20
190 987
205 985
17 31
65 80
117 118
129 748
109 123
157 172
209 210
6 21
58 59
201 215
191 192
50 64
98 113
142 156
190 205
39 54
91 92
137 724
224 225
83 97
131 146
183 184
32 33
175 189
24 38
47 430
72 87
124 125
164 826
84 98
57 471
116 130
164 179
61 432
216 217
207 1053
65 66
176 190
208 222
198 199
57 71
123 672
157 158
6 7
117 131
62 433
116 642
139 140
149 163
149 828
185 912
98 99
82 509
197 212
222 1050
209 223
58 72
124 673
90 104
190 191
144 749
39 40
150 164
30 309
182 196
172 173
72 473
131 132
123 137
223 224
72 73
183 197
172 914
32 46
64 78
101 643
164 165
124 138
156 170
5 19
190 986
38 53
205 984
65 79
97 111
197 198
130 145
157 171
189 203
6 20
71 86
98 112
163 178
12 27
190 204
143 748
39 53
104 119
23 283
131 145
13 28
45 60
72 86
105 120
137 152
57 470
38 39
61 431
115 640
164 178
207 1052
67 511
46 61
71 472
78 93
123 671
138 153
15 311
116 641
19 34
71 72
149 827
197 211
82 508
79 94
63 77
111 126
163 829
12 13
171 186
20 35
4 18
30 308
52 67
104 105
72 472
112 127
186 970
201 968
13 14
204 219
53 68
37 51
85 100
164 829
145 160
46 47
26 41
78 79
190 985
38 52
158 862
86 101
70 84
138 139
19 20
130 144
187 916
178 193
204 987
27 42
11 25
79 80
71 85
119 134
171 172
20 21
52 53
163 177
12 26
107 663
60 75
44 58
112 113
104 118
23 282
152 167
204 205
1 16
53 54
45 59
93 108
145 146
172 917
199 1020
26 27
137 151
185 200
61 430
86 87
18 32
115 639
71 471
78 92
126 141
178 179
221 1053
27 28
122 665
138 152
186 201
170 184
15 310
224 1058
19 33
119 120
8 280
111 125
163 828
45 427
81 511
211 212
171 185
203 217
52 66
143 751
152 153
1 2
112 126
186 969
212 213
100 637
144 158
93 94
204 218
85 99
185 186
145 159
193 208
177 191
26 40
115 643
126 127
59 74
158 861
186 187
118 132
218 219
204 986
187 915
178 192
210 224
92 107
119 133
219 220
184 199
172 862
33 48
107 662
125 140
23 281
152 166
173 863
34 49
66 81
93 107
193 194
199 1019
158 173
7 22
59 60
185 199
115 638
209 1060
60 424
67 82
99 114
126 140
221 1052
159 174
122 664
191 206
8 23
40 55
92 93
123 727
100 115
132 147
184 185
29 311
33 34
45 426
81 510
192 207
41 56
25 39
214 1021
73 88
125 126
133 148
165 180
34 35
100 636
14 29
66 67
22 280
74 89
106 121
7 8
